0 0 13 
1 0 16 
2 0 19 
3 0 22 
4 0 25 
5 0 28 
6 0 31 
7 0 34 
8 0 37 
9 0 4 
10 0 40 
11 0 7 
12 2 10 
13 2 12 
14 2 14 
15 2 16 
16 2 21 
17 2 23 
18 2 25 
19 2 27 
20 2 34 
21 5 20 
22 5 8 
23 6 42 
24 8 17 
25 8 28 
26 9 10 
27 9 21 
28 11 18 
29 12 17 
30 12 28 
31 12 5 
32 15 17 
33 15 28 
34 15 8 
35 18 34 
36 25 10 
37 25 12 
38 25 14 
39 25 16 
40 25 25 
41 25 27 
42 25 29 
43 25 31 
44 25 6 
45 28 19 
46 28 21 
47 28 34 
48 31 17 
49 31 32 
50 32 10 
51 32 25 
52 34 18 
53 34 33 
54 35 17 
55 35 32 
56 38 17 
57 38 19 
58 38 21 
59 38 32 
60 38 34 
61 40 6 
62 48 10 
63 48 12 
64 48 13 
65 48 14 
66 48 21 
67 48 23 
68 48 24 
69 48 25 
70 48 28 
71 48 35 
72 51 18 
73 51 8 
74 55 12 
75 55 23 
76 57 11 
77 57 16 
78 57 22 
79 58 5 
80 61 14 
81 61 25 
82 61 8 
83 63 28 
84 64 35 
85 71 15 
86 71 17 
87 71 18 
88 71 19 
89 71 21 
90 71 23 
91 71 24 
92 71 25 
93 71 34 
94 71 36 
95 74 11 
96 74 29 
97 74 6 
98 74 9 
99 78 17 
100 78 21 
101 80 16 
102 80 23 
103 80 27 
104 80 30 
105 80 5 
106 80 8 
107 84 11 
108 84 19 
109 84 6 
110 84 9 
111 93 0 
112 94 10 
113 94 14 
114 94 16 
115 94 18 
116 94 20 
117 94 23 
118 94 25 
119 94 27 
120 94 29 
121 94 31 
122 97 34 
123 97 36 
124 100 21 
125 100 32 
126 101 14 
127 101 25 
128 103 33 
129 104 21 
130 104 32 
131 107 21 
132 107 32 
133 107 34 
134 107 36 
135 109 23 
136 110 10 
137 117 10 
138 117 12 
139 117 13 
140 117 14 
141 117 33 
142 117 35 
143 120 19 
144 120 23 
145 120 27 
146 120 6 
147 124 12 
148 124 20 
149 124 23 
150 124 27 
151 125 21 
152 125 25 
153 126 11 
154 126 29 
155 126 5 
156 127 16 
157 130 14 
158 130 19 
159 130 22 
160 130 26 
161 130 6 
162 140 20 
163 140 22 
164 140 24 
165 140 26 
166 140 28 
167 140 6 
168 143 10 
169 143 13 
170 143 17 
171 143 21 
172 143 31 
173 143 34 
174 143 36 
175 146 29 
176 147 22 
177 148 20 
178 149 11 
179 149 20 
180 149 30 
181 149 33 
182 149 42 
183 149 8 
184 150 29 
185 153 21 
186 153 29 
187 153 31 
188 153 34 
189 153 36 
190 155 6 
191 163 10 
192 163 12 
193 163 14 
194 163 16 
195 163 18 
196 163 20 
197 163 22 
198 163 24 
199 166 28 
200 166 31 
201 166 35 
202 166 8 
203 169 17 
204 169 25 
205 170 10 
206 170 18 
207 172 26 
208 172 29 
209 173 17 
210 173 25 
211 173 5 
212 176 17 
213 176 25 
214 176 8 
215 186 10 
216 186 14 
217 186 16 
218 186 18 
219 186 20 
220 186 26 
221 189 23 
222 195 14 
223 195 21 
224 195 22 
225 195 32 
226 199 21 
227 199 23 
228 201 26 
229 202 10 
230 209 10 
231 209 11 
232 209 12 
233 209 15 
234 209 17 
235 209 19 
236 209 21 
237 209 23 
238 209 25 
239 209 27 
240 209 29 
241 209 32 
242 209 34 
243 209 37 
244 212 16 
245 212 20 
246 212 24 
247 212 28 
248 212 33 
249 212 37 
250 212 8 
251 216 14 
252 216 31 
253 217 14 
254 217 31 
255 218 14 
256 218 31 
257 219 5 
258 222 8 
259 224 11 
260 224 12 
261 232 13 
262 232 21 
263 232 23 
264 232 25 
265 232 27 
266 232 29 
267 232 31 
268 232 6 
269 235 18 
270 235 22 
271 235 26 
272 235 30 
273 235 34 
274 235 36 
275 239 20 
276 240 20 
277 241 16 
278 241 20 
279 241 33 
280 245 34 
281 245 36 
282 247 6 
283 248 13 
284 255 10 
285 255 12 
286 255 13 
287 255 15 
288 255 31 
289 255 32 
290 255 34 
291 255 36 
292 258 12 
293 258 14 
294 258 16 
295 258 20 
296 258 24 
297 258 28 
298 258 6 
299 262 10 
300 262 21 
301 262 24 
302 262 28 
303 263 10 
304 263 13 
305 263 15 
306 263 22 
307 263 26 
308 264 10 
309 264 13 
310 264 15 
311 264 30 
312 264 5 
313 265 17 
314 268 14 
315 268 16 
316 268 20 
317 268 23 
318 268 27 
319 268 6 
320 278 10 
321 278 12 
322 278 13 
323 278 19 
324 278 35 
325 281 12 
326 281 14 
327 281 16 
328 281 7 
329 285 10 
330 286 10 
331 286 13 
332 287 10 
333 287 13 
334 287 15 
335 287 25 
336 287 5 
337 291 14 
338 291 16 
339 293 19 
340 294 35 
341 299 16 
342 299 21 
